c preprocessed version of sodoku-elim1, 80 vertices, 898 edges
p td 80 898
0 1
0 2
0 3
0 4
0 5
0 6
0 7
0 9
0 10
0 11
0 18
0 19
0 20
0 28
0 37
0 46
0 55
0 64
0 73
0 27
0 36
0 45
0 54
0 63
0 72
1 2
1 3
1 4
1 5
1 6
1 7
1 9
1 10
1 11
1 18
1 19
1 20
1 29
1 38
1 47
1 56
1 65
1 74
1 27
1 36
1 45
1 54
1 63
1 72
2 3
2 4
2 5
2 6
2 7
2 12
2 13
2 14
2 21
2 22
2 23
2 30
2 39
2 48
2 57
2 66
2 75
2 9
2 18
2 27
2 36
2 45
2 54
2 63
2 72
2 10
2 11
2 19
2 20
3 4
3 5
3 6
3 7
3 12
3 13
3 14
3 21
3 22
3 23
3 31
3 40
3 49
3 58
3 67
3 76
3 9
3 18
3 27
3 36
3 45
3 54
3 63
3 72
3 10
3 11
3 19
3 20
4 5
4 6
4 7
4 12
4 13
4 14
4 21
4 22
4 23
4 32
4 41
4 50
4 59
4 68
4 77
4 9
4 18
4 27
4 36
4 45
4 54
4 63
4 72
4 10
4 11
4 19
4 20
5 6
5 7
5 8
5 15
5 16
5 17
5 24
5 25
5 33
5 35
5 44
5 60
5 62
5 71
5 9
5 18
5 27
5 36
5 45
5 54
5 63
5 72
5 10
5 11
5 19
5 20
6 7
6 8
6 15
6 16
6 17
6 24
6 25
6 34
6 42
6 51
6 61
6 69
6 78
6 9
6 18
6 27
6 36
6 45
6 54
6 63
6 72
6 10
6 11
6 19
6 20
7 8
7 15
7 16
7 17
7 24
7 25
7 26
7 43
7 52
7 53
7 70
7 79
7 9
7 18
7 27
7 36
7 45
7 54
7 63
7 72
7 10
7 11
7 19
7 20
9 8
10 8
11 8
12 8
13 8
14 8
8 15
8 16
8 17
8 24
8 25
8 33
8 35
8 44
8 60
8 62
8 71
9 10
9 11
9 12
9 13
9 14
9 15
9 16
9 18
9 19
9 20
9 27
9 36
9 45
9 54
9 63
9 72
10 11
10 12
10 13
10 14
10 15
10 16
10 18
10 19
10 20
10 28
10 37
10 46
10 55
10 64
10 73
10 27
10 36
10 45
10 54
10 63
10 72
11 12
11 13
11 14
11 15
11 16
11 18
11 19
11 20
11 29
11 38
11 47
11 56
11 65
11 74
11 27
11 36
11 45
11 54
11 63
11 72
12 13
12 14
12 15
12 16
12 21
12 22
12 23
12 30
12 39
12 48
12 57
12 66
12 75
13 14
13 15
13 16
13 21
13 22
13 23
13 31
13 40
13 49
13 58
13 67
13 76
14 15
14 16
14 21
14 22
14 23
14 32
14 41
14 50
14 59
14 68
14 77
15 16
15 17
15 24
15 25
15 34
15 42
15 51
15 61
15 69
15 78
16 17
16 24
16 25
16 26
16 43
16 52
16 53
16 70
16 79
18 17
19 17
20 17
21 17
22 17
23 17
17 24
17 25
17 33
17 35
17 44
17 60
17 62
17 71
18 19
18 20
18 21
18 22
18 23
18 24
18 25
18 27
18 36
18 45
18 54
18 63
18 72
19 20
19 21
19 22
19 23
19 24
19 25
19 28
19 37
19 46
19 55
19 64
19 73
19 27
19 36
19 45
19 54
19 63
19 72
20 21
20 22
20 23
20 24
20 25
20 29
20 38
20 47
20 56
20 65
20 74
20 27
20 36
20 45
20 54
20 63
20 72
21 22
21 23
21 24
21 25
21 30
21 39
21 48
21 57
21 66
21 75
22 23
22 24
22 25
22 31
22 40
22 49
22 58
22 67
22 76
23 24
23 25
23 32
23 41
23 50
23 59
23 68
23 77
24 25
24 34
24 42
24 51
24 61
24 69
24 78
25 26
25 43
25 52
25 53
25 70
25 79
27 26
28 26
29 26
30 26
31 26
32 26
33 26
34 26
26 35
26 42
26 43
26 44
26 51
26 52
26 53
26 70
26 79
27 28
27 29
27 30
27 31
27 32
27 33
27 34
27 36
27 37
27 38
27 45
27 46
27 47
27 54
27 63
27 72
28 29
28 30
28 31
28 32
28 33
28 34
28 36
28 37
28 38
28 45
28 46
28 47
28 55
28 64
28 73
29 30
29 31
29 32
29 33
29 34
29 36
29 37
29 38
29 45
29 46
29 47
29 56
29 65
29 74
30 31
30 32
30 33
30 34
30 39
30 40
30 41
30 48
30 49
30 50
30 57
30 66
30 75
31 32
31 33
31 34
31 39
31 40
31 41
31 48
31 49
31 50
31 58
31 67
31 76
32 33
32 34
32 39
32 40
32 41
32 48
32 49
32 50
32 59
32 68
32 77
33 34
33 35
33 42
33 43
33 44
33 51
33 52
33 60
33 62
33 71
34 35
34 42
34 43
34 44
34 51
34 52
34 61
34 69
34 78
36 35
37 35
38 35
39 35
40 35
41 35
35 42
35 43
35 44
35 51
35 52
35 60
35 62
35 71
36 37
36 38
36 39
36 40
36 41
36 42
36 43
36 45
36 46
36 47
36 54
36 63
36 72
37 38
37 39
37 40
37 41
37 42
37 43
37 45
37 46
37 47
37 55
37 64
37 73
38 39
38 40
38 41
38 42
38 43
38 45
38 46
38 47
38 56
38 65
38 74
39 40
39 41
39 42
39 43
39 48
39 49
39 50
39 57
39 66
39 75
40 41
40 42
40 43
40 48
40 49
40 50
40 58
40 67
40 76
41 42
41 43
41 48
41 49
41 50
41 59
41 68
41 77
42 43
42 44
42 51
42 52
42 61
42 69
42 78
43 44
43 51
43 52
43 53
43 70
43 79
45 44
46 44
47 44
48 44
49 44
50 44
44 51
44 52
44 60
44 62
44 71
45 46
45 47
45 48
45 49
45 50
45 51
45 52
45 54
45 63
45 72
46 47
46 48
46 49
46 50
46 51
46 52
46 55
46 64
46 73
47 48
47 49
47 50
47 51
47 52
47 56
47 65
47 74
48 49
48 50
48 51
48 52
48 57
48 66
48 75
49 50
49 51
49 52
49 58
49 67
49 76
50 51
50 52
50 59
50 68
50 77
51 52
51 61
51 69
51 78
52 53
52 70
52 79
54 53
55 53
56 53
57 53
58 53
59 53
60 53
61 53
53 62
53 69
53 70
53 71
53 78
53 79
54 55
54 56
54 57
54 58
54 59
54 60
54 61
54 63
54 64
54 65
54 72
54 73
54 74
55 56
55 57
55 58
55 59
55 60
55 61
55 63
55 64
55 65
55 72
55 73
55 74
56 57
56 58
56 59
56 60
56 61
56 63
56 64
56 65
56 72
56 73
56 74
57 58
57 59
57 60
57 61
57 66
57 67
57 68
57 75
57 76
57 77
58 59
58 60
58 61
58 66
58 67
58 68
58 75
58 76
58 77
59 60
59 61
59 66
59 67
59 68
59 75
59 76
59 77
60 61
60 62
60 69
60 70
60 71
60 78
60 79
61 62
61 69
61 70
61 71
61 78
61 79
63 62
64 62
65 62
66 62
67 62
68 62
62 69
62 70
62 71
62 78
62 79
63 64
63 65
63 66
63 67
63 68
63 69
63 70
63 72
63 73
63 74
64 65
64 66
64 67
64 68
64 69
64 70
64 72
64 73
64 74
65 66
65 67
65 68
65 69
65 70
65 72
65 73
65 74
66 67
66 68
66 69
66 70
66 75
66 76
66 77
67 68
67 69
67 70
67 75
67 76
67 77
68 69
68 70
68 75
68 76
68 77
69 70
69 71
69 78
69 79
70 71
70 78
70 79
72 71
73 71
74 71
75 71
76 71
77 71
71 78
71 79
72 73
72 74
72 75
72 76
72 77
72 78
72 79
73 74
73 75
73 76
73 77
73 78
73 79
74 75
74 76
74 77
74 78
74 79
75 76
75 77
75 78
75 79
76 77
76 78
76 79
77 78
77 79
78 79
